;; produced by colibri_gnatprove.drv ;;
(set-info :source |VC generated by SPARK 2014|)
(set-info :smt-lib-version 2.5)
(set-info :category industrial)
(set-info :status unknown)
;;; generated by SMT-LIB2 driver
;;; SMT-LIB2 driver: bit-vectors, common part
;;; SMT-LIB2: integer arithmetic
(define-fun in_range ((x Int)) Bool (and (<= (- 100) x) (<= x 100)))

(define-fun in_range1 ((x Int)) Bool (and (<= 0 x) (<= x 10)))

(declare-fun value__size () Int)

(declare-fun value__alignment () Int)

;; value__size_axiom
  (assert (<= 0 value__size))

;; value__alignment_axiom
  (assert (<= 0 value__alignment))

(declare-fun shapes4__circle__center_x__first__bit () Int)

(declare-fun shapes4__circle__center_x__last__bit () Int)

(declare-fun shapes4__circle__center_x__position () Int)

;; shapes4__circle__center_x__first__bit_axiom
  (assert (<= 0 shapes4__circle__center_x__first__bit))

;; shapes4__circle__center_x__last__bit_axiom
  (assert
  (< shapes4__circle__center_x__first__bit shapes4__circle__center_x__last__bit))

;; shapes4__circle__center_x__position_axiom
  (assert (<= 0 shapes4__circle__center_x__position))

(declare-fun shapes4__circle__center_y__first__bit () Int)

(declare-fun shapes4__circle__center_y__last__bit () Int)

(declare-fun shapes4__circle__center_y__position () Int)

;; shapes4__circle__center_y__first__bit_axiom
  (assert (<= 0 shapes4__circle__center_y__first__bit))

;; shapes4__circle__center_y__last__bit_axiom
  (assert
  (< shapes4__circle__center_y__first__bit shapes4__circle__center_y__last__bit))

;; shapes4__circle__center_y__position_axiom
  (assert (<= 0 shapes4__circle__center_y__position))

(declare-fun shapes4__circle__radius__first__bit () Int)

(declare-fun shapes4__circle__radius__last__bit () Int)

(declare-fun shapes4__circle__radius__position () Int)

;; shapes4__circle__radius__first__bit_axiom
  (assert (<= 0 shapes4__circle__radius__first__bit))

;; shapes4__circle__radius__last__bit_axiom
  (assert
  (< shapes4__circle__radius__first__bit shapes4__circle__radius__last__bit))

;; shapes4__circle__radius__position_axiom
  (assert (<= 0 shapes4__circle__radius__position))

(define-fun dynamic_invariant ((temp___expr_135 Int)
  (temp___is_init_132 Bool) (temp___skip_constant_133 Bool)
  (temp___do_toplevel_134 Bool)) Bool (=>
                                      (or (= temp___is_init_132 true)
                                      (<= (- 100) 100)) (in_range
                                      temp___expr_135)))

(define-fun dynamic_invariant1 ((temp___expr_141 Int)
  (temp___is_init_138 Bool) (temp___skip_constant_139 Bool)
  (temp___do_toplevel_140 Bool)) Bool (=>
                                      (or (= temp___is_init_138 true)
                                      (<= 0 10)) (in_range1 temp___expr_141)))

(assert
;; WP_parameter_def
 ;; File "shapes4.ads", line 25, characters 0-0
  (not false))
(check-sat)
(exit)
